0 658056 
1 656210 
2 655438 
3 651712 
4 651352 
5 650886 
6 648366 
7 644398 
8 640074 
9 638254 
10 637664 
11 635342 
12 632390 
13 631678 
14 629790 
15 627370 
16 627344 
17 625056 
18 624778 
19 623430 
20 621842 
21 621678 
22 621218 
23 618902 
24 618554 
25 618324 
26 618200 
27 617128 
28 615852 
29 615504 
30 614822 
31 614592 
32 614254 
33 613562 
34 611292 
35 607588 
36 604464 
37 603760 
38 603752 
39 600810 
40 597318 
41 596932 
42 595170 
43 595052 
44 595000 
45 592944 
46 591396 
47 590018 
48 589130 
49 588534 
50 587898 
51 584380 
52 579038 
53 573472 
54 571878 
55 571710 
56 571380 
57 569928 
58 563286 
59 561600 
60 561122 
61 560292 
62 559996 
63 555894 
64 554140 
65 546916 
66 546608 
67 544008 
68 543698 
69 542326 
70 534674 
71 530678 
72 528226 
73 526798 
74 524990 
75 524076 
76 524052 
77 509144 
78 502840 
79 500278 
80 500278 

